4 7 -1 8 -1 
-1 -1 7 -1 -1 
5 7 3 -1 -1 
4 -1 9 9 -1 
-1 -1 5 5 -1 
7 5 9 9 -1 
10 5 -1 8 -1 
3 4 1 -1 -1 
4 10 -1 2 -1 
8 -1 3 1 -1 
6 9 7 2 -1 
5 9 6 1 -1 
7 4 0 -1 -1 
10 1 9 7 -1 
3 9 5 9 -1 
-1 4 2 2 -1 
5 -1 0 3 -1 
-1 -1 -1 6 -1 
9 8 8 3 -1 
9 -1 8 -1 -1 
